NAME 
OBJSENSE MAX
ROWS
 N  OBJ
 L  packing[0]
 L  packing[1]
 L  packing[2]
 L  packing[3]
 L  packing[4]
 L  packing[5]
 L  packing[6]
 L  packing[7]
 L  packing[8]
 L  packing[9]
 L  packing[10]
 L  packing[11]
 L  packing[12]
 L  packing[13]
 L  packing[14]
 L  packing[15]
 L  packing[16]
 L  packing[17]
 L  packing[18]
 L  packing[19]
 L  packing[20]
 L  packing[21]
 L  packing[22]
 L  packing[23]
 L  packing[24]
 L  packing[25]
 L  packing[26]
 L  packing[27]
 L  packing[28]
 L  packing[29]
 L  packing[30]
 L  packing[31]
 L  packing[32]
 L  packing[33]
 L  packing[34]
 L  packing[35]
 L  packing[36]
 L  packing[37]
 L  packing[38]
 L  packing[39]
 L  packing[40]
 L  packing[41]
 L  packing[42]
 L  packing[43]
 L  packing[44]
 L  packing[45]
 L  packing[46]
 L  packing[47]
 L  packing[48]
 L  packing[49]
 L  R56     
COLUMNS
    MARKER    'MARKER'                 'INTORG'
    x[1]      OBJ       13
    x[1]      packing[0]  166
    x[1]      packing[1]  83
    x[1]      packing[3]  62
    x[1]      packing[4]  184
    x[1]      packing[5]  18
    x[1]      packing[9]  148
    x[1]      packing[11]  109
    x[1]      packing[12]  174
    x[1]      packing[13]  180
    x[1]      packing[14]  151
    x[1]      packing[15]  120
    x[1]      packing[16]  134
    x[1]      packing[17]  128
    x[1]      packing[18]  87
    x[1]      packing[19]  111
    x[1]      packing[22]  29
    x[1]      packing[23]  171
    x[1]      packing[24]  116
    x[1]      packing[26]  84
    x[1]      packing[27]  161
    x[1]      packing[28]  67
    x[1]      packing[29]  115
    x[1]      packing[30]  44
    x[1]      packing[31]  75
    x[1]      packing[32]  57
    x[1]      packing[33]  120
    x[1]      packing[34]  61
    x[1]      packing[35]  19
    x[1]      packing[36]  123
    x[1]      packing[37]  145
    x[1]      packing[38]  182
    x[1]      packing[39]  55
    x[1]      packing[40]  47
    x[1]      packing[41]  106
    x[1]      packing[42]  160
    x[1]      packing[43]  157
    x[1]      packing[47]  180
    x[1]      packing[49]  40
    x[2]      OBJ       99
    x[2]      packing[1]  98
    x[2]      packing[2]  105
    x[2]      packing[4]  63
    x[2]      packing[5]  93
    x[2]      packing[7]  118
    x[2]      packing[9]  199
    x[2]      packing[11]  147
    x[2]      packing[13]  95
    x[2]      packing[14]  121
    x[2]      packing[15]  159
    x[2]      packing[17]  48
    x[2]      packing[19]  190
    x[2]      packing[20]  161
    x[2]      packing[21]  108
    x[2]      packing[23]  90
    x[2]      packing[26]  75
    x[2]      packing[27]  9
    x[2]      packing[28]  86
    x[2]      packing[29]  13
    x[2]      packing[30]  197
    x[2]      packing[32]  59
    x[2]      packing[33]  61
    x[2]      packing[34]  153
    x[2]      packing[35]  16
    x[2]      packing[36]  148
    x[2]      packing[40]  46
    x[2]      packing[42]  59
    x[2]      packing[45]  68
    x[2]      packing[47]  162
    x[2]      packing[49]  135
    x[2]      R56       1
    x[3]      OBJ       121
    x[3]      packing[0]  97
    x[3]      packing[2]  166
    x[3]      packing[3]  118
    x[3]      packing[4]  196
    x[3]      packing[5]  129
    x[3]      packing[7]  7
    x[3]      packing[8]  182
    x[3]      packing[9]  83
    x[3]      packing[12]  106
    x[3]      packing[14]  57
    x[3]      packing[15]  80
    x[3]      packing[18]  36
    x[3]      packing[19]  77
    x[3]      packing[20]  66
    x[3]      packing[21]  195
    x[3]      packing[23]  91
    x[3]      packing[24]  46
    x[3]      packing[26]  70
    x[3]      packing[27]  188
    x[3]      packing[28]  97
    x[3]      packing[29]  170
    x[3]      packing[30]  22
    x[3]      packing[31]  45
    x[3]      packing[33]  178
    x[3]      packing[34]  153
    x[3]      packing[35]  115
    x[3]      packing[37]  49
    x[3]      packing[39]  62
    x[3]      packing[42]  16
    x[3]      packing[45]  153
    x[3]      packing[46]  6
    x[3]      packing[48]  40
    x[4]      OBJ       25
    x[4]      packing[0]  188
    x[4]      packing[1]  178
    x[4]      packing[2]  105
    x[4]      packing[4]  174
    x[4]      packing[5]  156
    x[4]      packing[8]  153
    x[4]      packing[10]  4
    x[4]      packing[12]  98
    x[4]      packing[13]  88
    x[4]      packing[14]  27
    x[4]      packing[15]  113
    x[4]      packing[16]  79
    x[4]      packing[18]  121
    x[4]      packing[19]  80
    x[4]      packing[21]  41
    x[4]      packing[22]  114
    x[4]      packing[23]  175
    x[4]      packing[24]  95
    x[4]      packing[26]  4
    x[4]      packing[27]  71
    x[4]      packing[28]  186
    x[4]      packing[30]  195
    x[4]      packing[31]  176
    x[4]      packing[33]  117
    x[4]      packing[34]  192
    x[4]      packing[35]  23
    x[4]      packing[36]  163
    x[4]      packing[37]  192
    x[4]      packing[39]  153
    x[4]      packing[41]  167
    x[4]      packing[42]  41
    x[4]      packing[43]  170
    x[4]      packing[44]  34
    x[4]      packing[45]  113
    x[4]      packing[46]  97
    x[4]      packing[47]  132
    x[4]      packing[48]  147
    x[4]      packing[49]  170
    x[5]      OBJ       146
    x[5]      packing[0]  38
    x[5]      packing[1]  24
    x[5]      packing[2]  106
    x[5]      packing[3]  68
    x[5]      packing[4]  83
    x[5]      packing[5]  115
    x[5]      packing[6]  113
    x[5]      packing[7]  3
    x[5]      packing[9]  107
    x[5]      packing[11]  161
    x[5]      packing[12]  99
    x[5]      packing[13]  199
    x[5]      packing[14]  153
    x[5]      packing[15]  53
    x[5]      packing[16]  75
    x[5]      packing[18]  194
    x[5]      packing[19]  107
    x[5]      packing[21]  118
    x[5]      packing[22]  88
    x[5]      packing[23]  40
    x[5]      packing[25]  159
    x[5]      packing[26]  166
    x[5]      packing[27]  68
    x[5]      packing[29]  171
    x[5]      packing[30]  136
    x[5]      packing[31]  68
    x[5]      packing[33]  41
    x[5]      packing[34]  29
    x[5]      packing[37]  110
    x[5]      packing[40]  177
    x[5]      packing[42]  6
    x[5]      packing[43]  184
    x[5]      packing[44]  80
    x[5]      packing[45]  36
    x[5]      packing[49]  182
    x[5]      R56       1
    x[6]      OBJ       35
    x[6]      packing[0]  137
    x[6]      packing[1]  91
    x[6]      packing[2]  162
    x[6]      packing[3]  101
    x[6]      packing[4]  50
    x[6]      packing[6]  28
    x[6]      packing[10]  3
    x[6]      packing[11]  96
    x[6]      packing[13]  106
    x[6]      packing[15]  4
    x[6]      packing[16]  40
    x[6]      packing[17]  170
    x[6]      packing[19]  198
    x[6]      packing[20]  113
    x[6]      packing[21]  155
    x[6]      packing[22]  198
    x[6]      packing[23]  45
    x[6]      packing[25]  146
    x[6]      packing[26]  32
    x[6]      packing[27]  121
    x[6]      packing[28]  15
    x[6]      packing[29]  108
    x[6]      packing[30]  72
    x[6]      packing[32]  84
    x[6]      packing[35]  107
    x[6]      packing[36]  197
    x[6]      packing[37]  104
    x[6]      packing[40]  11
    x[6]      packing[41]  150
    x[6]      packing[42]  16
    x[6]      packing[43]  170
    x[6]      packing[44]  124
    x[6]      packing[45]  104
    x[6]      packing[47]  123
    x[6]      packing[48]  169
    x[7]      OBJ       180
    x[7]      packing[0]  127
    x[7]      packing[2]  73
    x[7]      packing[4]  80
    x[7]      packing[5]  163
    x[7]      packing[6]  76
    x[7]      packing[7]  74
    x[7]      packing[8]  1
    x[7]      packing[9]  20
    x[7]      packing[13]  64
    x[7]      packing[15]  49
    x[7]      packing[16]  74
    x[7]      packing[17]  46
    x[7]      packing[18]  34
    x[7]      packing[19]  47
    x[7]      packing[20]  80
    x[7]      packing[21]  80
    x[7]      packing[24]  12
    x[7]      packing[25]  38
    x[7]      packing[26]  71
    x[7]      packing[27]  87
    x[7]      packing[28]  78
    x[7]      packing[29]  162
    x[7]      packing[30]  83
    x[7]      packing[31]  197
    x[7]      packing[32]  141
    x[7]      packing[33]  22
    x[7]      packing[35]  191
    x[7]      packing[36]  157
    x[7]      packing[39]  146
    x[7]      packing[40]  76
    x[7]      packing[41]  37
    x[7]      packing[43]  178
    x[7]      packing[44]  41
    x[7]      packing[45]  148
    x[7]      packing[47]  74
    x[7]      packing[48]  136
    x[7]      packing[49]  102
    x[7]      R56       1
    x[8]      OBJ       120
    x[8]      packing[0]  64
    x[8]      packing[1]  163
    x[8]      packing[2]  69
    x[8]      packing[3]  108
    x[8]      packing[4]  118
    x[8]      packing[5]  53
    x[8]      packing[6]  16
    x[8]      packing[7]  110
    x[8]      packing[10]  158
    x[8]      packing[11]  25
    x[8]      packing[12]  83
    x[8]      packing[13]  142
    x[8]      packing[14]  21
    x[8]      packing[15]  105
    x[8]      packing[16]  50
    x[8]      packing[17]  23
    x[8]      packing[18]  43
    x[8]      packing[20]  32
    x[8]      packing[22]  104
    x[8]      packing[23]  122
    x[8]      packing[24]  38
    x[8]      packing[26]  87
    x[8]      packing[27]  160
    x[8]      packing[28]  97
    x[8]      packing[29]  149
    x[8]      packing[30]  114
    x[8]      packing[31]  102
    x[8]      packing[32]  88
    x[8]      packing[33]  105
    x[8]      packing[34]  87
    x[8]      packing[37]  66
    x[8]      packing[38]  29
    x[8]      packing[39]  70
    x[8]      packing[41]  143
    x[8]      packing[42]  159
    x[8]      packing[43]  185
    x[8]      packing[45]  191
    x[8]      packing[46]  80
    x[8]      packing[47]  118
    x[8]      packing[48]  101
    x[8]      packing[49]  54
    x[9]      OBJ       197
    x[9]      packing[0]  110
    x[9]      packing[2]  136
    x[9]      packing[4]  131
    x[9]      packing[5]  23
    x[9]      packing[6]  127
    x[9]      packing[7]  197
    x[9]      packing[8]  124
    x[9]      packing[9]  158
    x[9]      packing[11]  20
    x[9]      packing[13]  174
    x[9]      packing[14]  107
    x[9]      packing[15]  7
    x[9]      packing[16]  49
    x[9]      packing[17]  139
    x[9]      packing[19]  182
    x[9]      packing[20]  13
    x[9]      packing[22]  122
    x[9]      packing[23]  180
    x[9]      packing[25]  61
    x[9]      packing[27]  120
    x[9]      packing[28]  82
    x[9]      packing[29]  101
    x[9]      packing[30]  166
    x[9]      packing[31]  111
    x[9]      packing[32]  55
    x[9]      packing[34]  145
    x[9]      packing[37]  164
    x[9]      packing[38]  95
    x[9]      packing[39]  81
    x[9]      packing[41]  117
    x[9]      packing[42]  199
    x[9]      packing[43]  139
    x[9]      packing[44]  104
    x[9]      packing[45]  99
    x[9]      packing[46]  164
    x[9]      packing[47]  43
    x[9]      packing[48]  56
    x[9]      R56       1
    x[10]     OBJ       178
    x[10]     packing[0]  85
    x[10]     packing[1]  128
    x[10]     packing[2]  64
    x[10]     packing[3]  64
    x[10]     packing[4]  113
    x[10]     packing[5]  127
    x[10]     packing[6]  188
    x[10]     packing[7]  126
    x[10]     packing[8]  167
    x[10]     packing[10]  91
    x[10]     packing[11]  77
    x[10]     packing[13]  30
    x[10]     packing[14]  111
    x[10]     packing[15]  21
    x[10]     packing[16]  71
    x[10]     packing[17]  121
    x[10]     packing[18]  169
    x[10]     packing[19]  59
    x[10]     packing[20]  16
    x[10]     packing[21]  87
    x[10]     packing[22]  151
    x[10]     packing[24]  112
    x[10]     packing[25]  97
    x[10]     packing[26]  143
    x[10]     packing[27]  33
    x[10]     packing[28]  74
    x[10]     packing[29]  185
    x[10]     packing[30]  57
    x[10]     packing[31]  152
    x[10]     packing[32]  134
    x[10]     packing[35]  138
    x[10]     packing[36]  30
    x[10]     packing[37]  3
    x[10]     packing[38]  185
    x[10]     packing[39]  136
    x[10]     packing[40]  73
    x[10]     packing[41]  91
    x[10]     packing[42]  53
    x[10]     packing[44]  71
    x[10]     packing[46]  88
    x[10]     packing[47]  43
    x[10]     packing[48]  10
    x[10]     packing[49]  188
    x[11]     OBJ       84
    x[11]     packing[1]  62
    x[11]     packing[3]  85
    x[11]     packing[4]  127
    x[11]     packing[5]  142
    x[11]     packing[6]  44
    x[11]     packing[7]  192
    x[11]     packing[8]  165
    x[11]     packing[9]  171
    x[11]     packing[10]  61
    x[11]     packing[11]  129
    x[11]     packing[13]  104
    x[11]     packing[14]  192
    x[11]     packing[16]  122
    x[11]     packing[17]  126
    x[11]     packing[18]  106
    x[11]     packing[19]  33
    x[11]     packing[22]  141
    x[11]     packing[25]  46
    x[11]     packing[27]  72
    x[11]     packing[28]  99
    x[11]     packing[29]  11
    x[11]     packing[31]  172
    x[11]     packing[32]  42
    x[11]     packing[34]  131
    x[11]     packing[35]  91
    x[11]     packing[36]  63
    x[11]     packing[37]  39
    x[11]     packing[40]  192
    x[11]     packing[41]  34
    x[11]     packing[43]  168
    x[11]     packing[45]  65
    x[11]     packing[46]  176
    x[11]     packing[47]  175
    x[12]     OBJ       107
    x[12]     packing[1]  71
    x[12]     packing[2]  37
    x[12]     packing[3]  161
    x[12]     packing[4]  182
    x[12]     packing[5]  61
    x[12]     packing[6]  157
    x[12]     packing[7]  9
    x[12]     packing[8]  36
    x[12]     packing[9]  118
    x[12]     packing[10]  164
    x[12]     packing[11]  155
    x[12]     packing[12]  125
    x[12]     packing[13]  128
    x[12]     packing[14]  18
    x[12]     packing[15]  129
    x[12]     packing[17]  135
    x[12]     packing[18]  46
    x[12]     packing[19]  90
    x[12]     packing[20]  74
    x[12]     packing[21]  66
    x[12]     packing[22]  157
    x[12]     packing[23]  171
    x[12]     packing[24]  19
    x[12]     packing[25]  129
    x[12]     packing[26]  89
    x[12]     packing[28]  159
    x[12]     packing[29]  41
    x[12]     packing[30]  54
    x[12]     packing[31]  171
    x[12]     packing[32]  21
    x[12]     packing[33]  39
    x[12]     packing[34]  131
    x[12]     packing[35]  65
    x[12]     packing[36]  30
    x[12]     packing[38]  197
    x[12]     packing[40]  61
    x[12]     packing[42]  124
    x[12]     packing[43]  140
    x[12]     packing[44]  98
    x[12]     packing[45]  121
    x[12]     packing[46]  162
    x[12]     packing[47]  53
    x[12]     packing[48]  3
    x[12]     packing[49]  66
    x[13]     OBJ       52
    x[13]     packing[0]  146
    x[13]     packing[1]  149
    x[13]     packing[2]  170
    x[13]     packing[3]  193
    x[13]     packing[4]  5
    x[13]     packing[7]  119
    x[13]     packing[9]  8
    x[13]     packing[10]  192
    x[13]     packing[11]  104
    x[13]     packing[14]  103
    x[13]     packing[18]  12
    x[13]     packing[19]  179
    x[13]     packing[20]  181
    x[13]     packing[21]  26
    x[13]     packing[23]  121
    x[13]     packing[24]  44
    x[13]     packing[26]  6
    x[13]     packing[27]  23
    x[13]     packing[28]  13
    x[13]     packing[31]  176
    x[13]     packing[32]  172
    x[13]     packing[33]  103
    x[13]     packing[35]  4
    x[13]     packing[36]  26
    x[13]     packing[37]  58
    x[13]     packing[39]  128
    x[13]     packing[40]  191
    x[13]     packing[41]  183
    x[13]     packing[42]  112
    x[13]     packing[43]  88
    x[13]     packing[44]  37
    x[13]     packing[45]  96
    x[13]     packing[46]  49
    x[13]     packing[47]  151
    x[13]     packing[48]  90
    x[13]     packing[49]  100
    x[14]     OBJ       126
    x[14]     packing[0]  133
    x[14]     packing[1]  143
    x[14]     packing[2]  52
    x[14]     packing[3]  47
    x[14]     packing[4]  55
    x[14]     packing[5]  190
    x[14]     packing[6]  191
    x[14]     packing[7]  63
    x[14]     packing[8]  108
    x[14]     packing[9]  47
    x[14]     packing[10]  20
    x[14]     packing[11]  56
    x[14]     packing[12]  26
    x[14]     packing[13]  162
    x[14]     packing[15]  61
    x[14]     packing[16]  162
    x[14]     packing[18]  134
    x[14]     packing[20]  37
    x[14]     packing[23]  170
    x[14]     packing[24]  174
    x[14]     packing[25]  169
    x[14]     packing[26]  120
    x[14]     packing[27]  44
    x[14]     packing[28]  186
    x[14]     packing[29]  160
    x[14]     packing[30]  187
    x[14]     packing[32]  38
    x[14]     packing[33]  110
    x[14]     packing[34]  162
    x[14]     packing[35]  14
    x[14]     packing[36]  132
    x[14]     packing[37]  91
    x[14]     packing[38]  9
    x[14]     packing[39]  120
    x[14]     packing[41]  123
    x[14]     packing[44]  156
    x[14]     packing[45]  34
    x[14]     packing[46]  199
    x[14]     packing[47]  197
    x[14]     packing[48]  7
    x[14]     packing[49]  46
    x[15]     OBJ       166
    x[15]     packing[0]  140
    x[15]     packing[1]  83
    x[15]     packing[2]  32
    x[15]     packing[5]  88
    x[15]     packing[6]  109
    x[15]     packing[7]  98
    x[15]     packing[8]  62
    x[15]     packing[9]  37
    x[15]     packing[10]  72
    x[15]     packing[12]  103
    x[15]     packing[13]  8
    x[15]     packing[14]  158
    x[15]     packing[15]  74
    x[15]     packing[17]  103
    x[15]     packing[18]  18
    x[15]     packing[19]  54
    x[15]     packing[20]  132
    x[15]     packing[21]  142
    x[15]     packing[23]  37
    x[15]     packing[29]  17
    x[15]     packing[30]  53
    x[15]     packing[33]  64
    x[15]     packing[34]  68
    x[15]     packing[35]  83
    x[15]     packing[36]  120
    x[15]     packing[37]  13
    x[15]     packing[38]  6
    x[15]     packing[40]  137
    x[15]     packing[42]  156
    x[15]     packing[45]  24
    x[15]     packing[46]  12
    x[15]     packing[47]  116
    x[15]     packing[48]  47
    x[15]     packing[49]  33
    x[15]     R56       1
    x[16]     OBJ       170
    x[16]     packing[0]  140
    x[16]     packing[1]  24
    x[16]     packing[2]  147
    x[16]     packing[4]  76
    x[16]     packing[5]  164
    x[16]     packing[7]  53
    x[16]     packing[8]  34
    x[16]     packing[9]  72
    x[16]     packing[11]  38
    x[16]     packing[15]  119
    x[16]     packing[16]  80
    x[16]     packing[18]  178
    x[16]     packing[19]  176
    x[16]     packing[21]  155
    x[16]     packing[22]  148
    x[16]     packing[24]  24
    x[16]     packing[25]  7
    x[16]     packing[27]  128
    x[16]     packing[28]  194
    x[16]     packing[29]  3
    x[16]     packing[30]  39
    x[16]     packing[31]  69
    x[16]     packing[32]  65
    x[16]     packing[33]  94
    x[16]     packing[34]  19
    x[16]     packing[36]  87
    x[16]     packing[37]  142
    x[16]     packing[38]  141
    x[16]     packing[39]  152
    x[16]     packing[40]  10
    x[16]     packing[41]  47
    x[16]     packing[42]  62
    x[16]     packing[43]  90
    x[16]     packing[44]  33
    x[16]     packing[45]  111
    x[16]     packing[46]  49
    x[16]     packing[48]  75
    x[16]     packing[49]  65
    x[16]     R56       1
    x[17]     OBJ       78
    x[17]     packing[0]  14
    x[17]     packing[3]  54
    x[17]     packing[4]  74
    x[17]     packing[7]  164
    x[17]     packing[9]  11
    x[17]     packing[10]  142
    x[17]     packing[11]  61
    x[17]     packing[12]  147
    x[17]     packing[13]  6
    x[17]     packing[14]  5
    x[17]     packing[16]  103
    x[17]     packing[17]  190
    x[17]     packing[18]  87
    x[17]     packing[19]  166
    x[17]     packing[20]  42
    x[17]     packing[21]  69
    x[17]     packing[22]  97
    x[17]     packing[24]  114
    x[17]     packing[26]  179
    x[17]     packing[28]  33
    x[17]     packing[29]  57
    x[17]     packing[30]  103
    x[17]     packing[31]  146
    x[17]     packing[32]  50
    x[17]     packing[33]  182
    x[17]     packing[35]  9
    x[17]     packing[36]  87
    x[17]     packing[37]  133
    x[17]     packing[40]  83
    x[17]     packing[41]  32
    x[17]     packing[43]  83
    x[17]     packing[44]  175
    x[17]     packing[45]  112
    x[17]     packing[46]  89
    x[17]     packing[48]  97
    x[17]     packing[49]  65
    x[18]     OBJ       111
    x[18]     packing[1]  153
    x[18]     packing[3]  133
    x[18]     packing[5]  119
    x[18]     packing[7]  143
    x[18]     packing[9]  51
    x[18]     packing[10]  196
    x[18]     packing[11]  163
    x[18]     packing[12]  86
    x[18]     packing[13]  122
    x[18]     packing[14]  7
    x[18]     packing[16]  11
    x[18]     packing[17]  134
    x[18]     packing[18]  60
    x[18]     packing[19]  186
    x[18]     packing[20]  6
    x[18]     packing[22]  3
    x[18]     packing[23]  43
    x[18]     packing[24]  121
    x[18]     packing[26]  57
    x[18]     packing[27]  191
    x[18]     packing[30]  174
    x[18]     packing[31]  118
    x[18]     packing[32]  91
    x[18]     packing[34]  56
    x[18]     packing[35]  60
    x[18]     packing[36]  82
    x[18]     packing[37]  29
    x[18]     packing[38]  105
    x[18]     packing[40]  27
    x[18]     packing[41]  39
    x[18]     packing[42]  74
    x[18]     packing[45]  75
    x[18]     packing[46]  185
    x[18]     packing[47]  14
    x[18]     packing[48]  124
    x[18]     packing[49]  190
    x[18]     R56       1
    x[19]     OBJ       133
    x[19]     packing[1]  3
    x[19]     packing[3]  34
    x[19]     packing[5]  2
    x[19]     packing[6]  177
    x[19]     packing[7]  85
    x[19]     packing[9]  171
    x[19]     packing[10]  194
    x[19]     packing[11]  74
    x[19]     packing[12]  102
    x[19]     packing[13]  166
    x[19]     packing[15]  109
    x[19]     packing[16]  131
    x[19]     packing[18]  31
    x[19]     packing[19]  178
    x[19]     packing[21]  147
    x[19]     packing[23]  181
    x[19]     packing[24]  99
    x[19]     packing[25]  37
    x[19]     packing[26]  198
    x[19]     packing[28]  28
    x[19]     packing[30]  55
    x[19]     packing[31]  19
    x[19]     packing[32]  118
    x[19]     packing[33]  143
    x[19]     packing[34]  115
    x[19]     packing[35]  192
    x[19]     packing[36]  172
    x[19]     packing[37]  98
    x[19]     packing[38]  35
    x[19]     packing[40]  108
    x[19]     packing[41]  129
    x[19]     packing[42]  188
    x[19]     packing[43]  14
    x[19]     packing[44]  84
    x[19]     packing[45]  15
    x[19]     packing[46]  57
    x[19]     packing[48]  114
    x[19]     packing[49]  132
    x[20]     OBJ       150
    x[20]     packing[2]  141
    x[20]     packing[3]  82
    x[20]     packing[4]  176
    x[20]     packing[6]  58
    x[20]     packing[7]  166
    x[20]     packing[8]  92
    x[20]     packing[10]  106
    x[20]     packing[11]  102
    x[20]     packing[12]  4
    x[20]     packing[13]  147
    x[20]     packing[14]  47
    x[20]     packing[15]  41
    x[20]     packing[16]  185
    x[20]     packing[17]  105
    x[20]     packing[20]  174
    x[20]     packing[21]  159
    x[20]     packing[23]  68
    x[20]     packing[25]  31
    x[20]     packing[26]  122
    x[20]     packing[27]  70
    x[20]     packing[28]  181
    x[20]     packing[29]  162
    x[20]     packing[30]  71
    x[20]     packing[31]  138
    x[20]     packing[32]  18
    x[20]     packing[34]  46
    x[20]     packing[37]  138
    x[20]     packing[39]  74
    x[20]     packing[41]  166
    x[20]     packing[42]  35
    x[20]     packing[43]  51
    x[20]     packing[44]  24
    x[20]     packing[45]  166
    x[20]     packing[46]  145
    x[20]     packing[47]  131
    x[20]     packing[48]  70
    x[20]     packing[49]  20
    x[20]     R56       1
    MARKER    'MARKER'                 'INTEND'
RHS
    RHS1      packing[0]  793
    RHS1      packing[1]  727
    RHS1      packing[2]  783
    RHS1      packing[3]  655
    RHS1      packing[4]  944
    RHS1      packing[5]  822
    RHS1      packing[6]  642
    RHS1      packing[7]  864
    RHS1      packing[8]  562
    RHS1      packing[9]  701
    RHS1      packing[10]  702
    RHS1      packing[11]  759
    RHS1      packing[12]  577
    RHS1      packing[13]  961
    RHS1      packing[14]  639
    RHS1      packing[15]  622
    RHS1      packing[16]  683
    RHS1      packing[17]  734
    RHS1      packing[18]  678
    RHS1      packing[19]  1057
    RHS1      packing[20]  564
    RHS1      packing[21]  774
    RHS1      packing[22]  676
    RHS1      packing[23]  853
    RHS1      packing[24]  507
    RHS1      packing[25]  460
    RHS1      packing[26]  752
    RHS1      packing[27]  773
    RHS1      packing[28]  838
    RHS1      packing[29]  813
    RHS1      packing[30]  911
    RHS1      packing[31]  968
    RHS1      packing[32]  617
    RHS1      packing[33]  690
    RHS1      packing[34]  774
    RHS1      packing[35]  564
    RHS1      packing[36]  809
    RHS1      packing[37]  787
    RHS1      packing[38]  492
    RHS1      packing[39]  589
    RHS1      packing[40]  620
    RHS1      packing[41]  782
    RHS1      packing[42]  730
    RHS1      packing[43]  909
    RHS1      packing[44]  531
    RHS1      packing[45]  866
    RHS1      packing[46]  779
    RHS1      packing[47]  856
    RHS1      packing[48]  643
    RHS1      packing[49]  794
    RHS1      R56       7
BOUNDS
 BV BND1      x[1]    
 BV BND1      x[2]    
 BV BND1      x[3]    
 BV BND1      x[4]    
 BV BND1      x[5]    
 BV BND1      x[6]    
 BV BND1      x[7]    
 BV BND1      x[8]    
 BV BND1      x[9]    
 BV BND1      x[10]   
 BV BND1      x[11]   
 BV BND1      x[12]   
 BV BND1      x[13]   
 BV BND1      x[14]   
 BV BND1      x[15]   
 BV BND1      x[16]   
 BV BND1      x[17]   
 BV BND1      x[18]   
 BV BND1      x[19]   
 BV BND1      x[20]   
ENDATA
